c 148_4_checker_6cl.cnf
c
c field = 148
c formula set type = 4_checker_6cl
c
p cnf 6 22
286 
288 
290 
292 
-284 
-296 
287 
289 
291 
293 
-285 
-297 
288 
290 
292 
296 
-286 
-298 
289 
291 
293 
297 
-287 
-299 
174 
204 
234 
264 
-144 
-324 
175 
205 
235 
265 
-145 
-325 
204 
234 
264 
324 
-174 
-354 
205 
235 
265 
325 
-175 
-355 
234 
264 
324 
354 
-204 
-384 
235 
265 
325 
355 
-205 
-385 
264 
324 
354 
384 
-234 
-414 
265 
325 
355 
385 
-235 
-415 
324 
354 
384 
414 
-264 
-444 
325 
355 
385 
415 
-265 
-445 
166 
198 
230 
262 
-134 
-326 
167 
199 
231 
263 
-135 
-327 
198 
230 
262 
326 
-166 
-358 
199 
231 
263 
327 
-167 
-359 
266 
322 
350 
378 
-238 
-406 
267 
323 
351 
379 
-239 
-407 
322 
350 
378 
406 
-266 
-434 
323 
351 
379 
407 
-267 
-435 
